Version identifier: 22.1.0.0 | 2022-03-09 | 1a383f8ce
CPXPARAM_Threads                                 1
CPXPARAM_MIP_Strategy_VariableSelect             3
CPXPARAM_TimeLimit                               599.99998365099998
1 of 1 MIP starts provided solutions.
MIP start 'm1' defined initial solution with objective 3.0000.
Tried aggregator 2 times.
MIP Presolve eliminated 34 rows and 1 columns.
MIP Presolve added 28 rows and 7 columns.
MIP Presolve modified 105 coefficients.
Aggregator did 7 substitutions.
Reduced MIP has 613 rows, 2600 columns, and 32648 nonzeros.
Reduced MIP has 2600 binaries, 0 generals, 0 SOSs, and 0 indicators.
Presolve time = 0.05 sec. (68.19 ticks)
Probing time = 0.01 sec. (9.55 ticks)
Tried aggregator 1 time.
Detecting symmetries...
MIP Presolve modified 11 coefficients.
Reduced MIP has 613 rows, 2600 columns, and 33051 nonzeros.
Reduced MIP has 2600 binaries, 0 generals, 0 SOSs, and 0 indicators.
Presolve time = 0.03 sec. (34.81 ticks)
Probing time = 0.01 sec. (9.62 ticks)
Clique table members: 399.
MIP emphasis: balance optimality and feasibility.
MIP search method: dynamic search.
Parallel mode: none, using 1 thread.
Root relaxation solution time = 0.33 sec. (417.60 ticks)

        Nodes                                         Cuts/
   Node  Left     Objective  IInf  Best Integer    Best Bound    ItCnt     Gap

*     0+    0                            3.0000     5050.0000              --- 
      0     0      100.0000   475        3.0000      100.0000     2701     --- 
      0     0      100.0000   424        3.0000      Cuts: 12     4449     --- 
      0     0      100.0000   365        3.0000   ZeroHalf: 7     5788     --- 
      0     0      100.0000   453        3.0000      Cuts: 16     9337     --- 
      0     0      100.0000   395        3.0000      Cuts: 15    11897     --- 
      0     0      100.0000   305        3.0000      Cuts: 15    14448     --- 
*     0+    0                           17.0000      100.0000           488.24%
Detecting symmetries...
      0     0      100.0000   424       17.0000       Cuts: 9    15935  488.24%
*     0+    0                           54.0000      100.0000            85.19%
      0     0        cutoff             54.0000      100.0000    15935   85.19%
Detecting symmetries...
      0     2      100.0000   178       54.0000      100.0000    15935   85.19%
Elapsed time = 15.64 sec. (17821.66 ticks, tree = 0.01 MB, solutions = 3)
      1     3      100.0000   337       54.0000      100.0000    18971   85.19%
      2     4      100.0000   409       54.0000      100.0000    21689   85.19%
      3     5      100.0000   349       54.0000      100.0000    24010   85.19%
      4     5       99.8367   388       54.0000      100.0000    26069   85.19%
      6     7      100.0000   299       54.0000      100.0000    28191   85.19%
      7     8      100.0000   304       54.0000      100.0000    34453   85.19%
      9    10      100.0000   294       54.0000      100.0000    34552   85.19%
     11    12      100.0000   265       54.0000      100.0000    35633   85.19%
     12    13      100.0000   151       54.0000      100.0000    36667   85.19%
     15    15       99.0000   409       54.0000      100.0000    51659   85.19%
Elapsed time = 20.79 sec. (23764.58 ticks, tree = 0.07 MB, solutions = 3)
     19    18       99.0000   398       54.0000      100.0000    57108   85.19%
     24    21       99.0000   261       54.0000      100.0000    62463   85.19%
     29    25       99.0000   182       54.0000      100.0000    69813   85.19%
     35    30       99.0000   188       54.0000      100.0000    71970   85.19%
     42    35       99.0000   170       54.0000      100.0000    81012   85.19%
     50    38    infeasible             54.0000      100.0000    88259   85.19%
     58    45       98.0000   249       54.0000      100.0000    90903   85.19%
     63    49       98.0000   105       54.0000      100.0000    92959   85.19%
     72    55       97.0000   250       54.0000      100.0000   102596   85.19%
     80    60       97.0000   223       54.0000      100.0000   109642   85.19%
Elapsed time = 30.30 sec. (34040.56 ticks, tree = 0.34 MB, solutions = 3)
     92    68       95.0000   117       54.0000      100.0000   114781   85.19%
*   107    65      integral     0       95.0000      100.0000   116829    5.26%
    108    64       99.9583   242       95.0000      100.0000   119617    5.26%
    112    67       99.0000   226       95.0000      100.0000   123990    5.26%
    117    72       99.0000   192       95.0000      100.0000   128349    5.26%
    120    74       98.0000   161       95.0000      100.0000   133500    5.26%
    127    80       98.0000    78       95.0000      100.0000   137586    5.26%
    132    85       98.0000   175       95.0000      100.0000   142869    5.26%
    137    89       96.0000   284       95.0000      100.0000   149177    5.26%
    143    93       98.0000   172       95.0000      100.0000   156589    5.26%
    152    98       97.0000   181       95.0000      100.0000   161831    5.26%
Elapsed time = 40.65 sec. (44853.37 ticks, tree = 0.47 MB, solutions = 4)
    160   103       96.0000   198       95.0000      100.0000   164600    5.26%
    170   110       96.0000   262       95.0000      100.0000   167438    5.26%
    181   117       96.0000   127       95.0000      100.0000   170158    5.26%
    190   121       99.0000   240       95.0000      100.0000   173725    5.26%
    198   129       99.0000   240       95.0000      100.0000   177321    5.26%
    203   132       98.0000   163       95.0000      100.0000   179715    5.26%
    213   140       96.0000   167       95.0000      100.0000   183579    5.26%
    223   144       96.0000   104       95.0000      100.0000   190358    5.26%
    235   146       96.0000    68       95.0000      100.0000   199566    5.26%
    243   145       99.0000   196       95.0000      100.0000   207512    5.26%
Elapsed time = 50.78 sec. (55180.93 ticks, tree = 0.52 MB, solutions = 4)
    250   151       98.0000   183       95.0000      100.0000   211515    5.26%
    257   157       97.0000   179       95.0000      100.0000   215991    5.26%
*   260+  127                           96.0000      100.0000             4.17%
    262   129       97.0000   151       96.0000      100.0000   220142    4.17%
    270   129       97.0000   156       96.0000      100.0000   230424    4.17%
    278   129       97.0000   140       96.0000      100.0000   240008    4.17%
    285   130    infeasible             96.0000      100.0000   249888    4.17%
    294   133       97.0000   115       96.0000      100.0000   258035    4.17%
    302   133       97.0000   135       96.0000      100.0000   267753    4.17%
    312   135       97.0000   144       96.0000      100.0000   275925    4.17%
    317   135       99.0000   127       96.0000      100.0000   285015    4.17%
Elapsed time = 62.10 sec. (65423.54 ticks, tree = 0.48 MB, solutions = 5)
    320   138       99.0000   118       96.0000      100.0000   286824    4.17%
    326   143       98.0000   141       96.0000      100.0000   291545    4.17%
    331   148       97.0000   120       96.0000      100.0000   298974    4.17%
*   340+  103                           97.0000      100.0000             3.09%
    341   103      100.0000   227       97.0000      100.0000   300895    3.09%
    345   106      100.0000   223       97.0000      100.0000   308203    3.09%
    348   109      100.0000   270       97.0000      100.0000   315388    3.09%
    352   111      100.0000   202       97.0000      100.0000   321716    3.09%
    356   113      100.0000   223       97.0000      100.0000   329939    3.09%
    360   116      100.0000   190       97.0000      100.0000   338224    3.09%
    364   117       99.7500   311       97.0000      100.0000   349786    3.09%
Elapsed time = 73.98 sec. (77922.14 ticks, tree = 0.39 MB, solutions = 6)
    367   120       99.0000   213       97.0000      100.0000   355191    3.09%
    373   122       98.0000   180       97.0000      100.0000   360992    3.09%
    383   125       98.0000   173       97.0000      100.0000   367891    3.09%
    386   124       99.9375   295       97.0000      100.0000   375416    3.09%
    393   131       99.0000   231       97.0000      100.0000   378451    3.09%
    401   139       99.0000   208       97.0000      100.0000   381137    3.09%
    406   143       98.0000   192       97.0000      100.0000   390126    3.09%
    412   149       98.0000   133       97.0000      100.0000   396414    3.09%
    417   148      100.0000   213       97.0000      100.0000   404327    3.09%
    422   152       99.7727   277       97.0000      100.0000   409053    3.09%
Elapsed time = 84.55 sec. (88733.98 ticks, tree = 0.57 MB, solutions = 6)
    426   155       98.0000   227       97.0000      100.0000   416505    3.09%
    429   156       98.0000   269       97.0000      100.0000   423228    3.09%
    434   157       98.0000   230       97.0000      100.0000   430081    3.09%
    437   158       98.0000   270       97.0000      100.0000   437212    3.09%
    440   159       98.0000   272       97.0000      100.0000   439994    3.09%
    452   161       98.0000   226       97.0000      100.0000   443248    3.09%
    465   162       98.0000   233       97.0000      100.0000   446395    3.09%
    478   161    infeasible             97.0000      100.0000   450252    3.09%
    491   162       98.0000   230       97.0000      100.0000   453973    3.09%
    504   161    infeasible             97.0000      100.0000   457754    3.09%
Elapsed time = 94.39 sec. (99244.40 ticks, tree = 0.60 MB, solutions = 6)
    519   162       98.0000   244       97.0000      100.0000   460877    3.09%
    531   166    infeasible             97.0000      100.0000   463095    3.09%
    543   167       99.0000   231       97.0000      100.0000   468611    3.09%
    546   167    infeasible             97.0000      100.0000   475968    3.09%
    550   169       98.0000   255       97.0000      100.0000   480944    3.09%
    553   170       98.0000   181       97.0000      100.0000   488044    3.09%
    558   171       98.0000   162       97.0000      100.0000   494554    3.09%
    563   172       98.0000   150       97.0000      100.0000   502862    3.09%
    567   172       98.0000   151       97.0000      100.0000   514318    3.09%
    572   171    infeasible             97.0000      100.0000   524497    3.09%
Elapsed time = 105.10 sec. (110301.41 ticks, tree = 0.62 MB, solutions = 6)
    576   173       98.0000   150       97.0000      100.0000   531596    3.09%
    581   172    infeasible             97.0000      100.0000   541200    3.09%
    586   173       98.0000   126       97.0000      100.0000   549043    3.09%
    590   173       98.0000   113       97.0000      100.0000   554633    3.09%
    595   174       98.0000   124       97.0000      100.0000   563308    3.09%
    604   173    infeasible             97.0000      100.0000   568956    3.09%
    611   174       98.0000   123       97.0000      100.0000   575842    3.09%
    615   174       98.0000   112       97.0000      100.0000   584286    3.09%
    620   173    infeasible             97.0000      100.0000   596053    3.09%
    638   179      100.0000   209       97.0000      100.0000   622977    3.09%
Elapsed time = 118.28 sec. (123727.67 ticks, tree = 0.62 MB, solutions = 6)
    654   187       98.0000   203       97.0000      100.0000   648828    3.09%
    678   193       98.0000   159       97.0000      100.0000   672285    3.09%
    691   198       99.0000    74       97.0000      100.0000   699814    3.09%
    726   214      100.0000   251       97.0000      100.0000   714795    3.09%
    750   236       98.0000   244       97.0000      100.0000   724489    3.09%
    792   243       99.0000   303       97.0000      100.0000   737285    3.09%
    837   247    infeasible             97.0000      100.0000   749677    3.09%
    869   251    infeasible             97.0000      100.0000   763460    3.09%
    911   253       98.0000   237       97.0000      100.0000   776798    3.09%
    960   260       98.0000   206       97.0000      100.0000   788631    3.09%
Elapsed time = 154.55 sec. (162663.49 ticks, tree = 0.72 MB, solutions = 6)
   1005   259    infeasible             97.0000      100.0000   799600    3.09%
   1054   266      100.0000   225       97.0000      100.0000   812526    3.09%
   1079   281       98.0000   254       97.0000      100.0000   828160    3.09%
   1109   294       98.0000   221       97.0000      100.0000   840871    3.09%
   1142   309    infeasible             97.0000      100.0000   852719    3.09%
   1193   312    infeasible             97.0000      100.0000   865906    3.09%
   1229   320       98.0000   222       97.0000      100.0000   881903    3.09%
   1275   325       99.0000   242       97.0000      100.0000   896652    3.09%
   1312   361       98.0000   251       97.0000      100.0000   899709    3.09%
   1350   399       98.0000   222       97.0000      100.0000   901289    3.09%
Elapsed time = 190.74 sec. (201355.04 ticks, tree = 0.89 MB, solutions = 6)
   1389   434       98.0000   172       97.0000      100.0000   906318    3.09%
   1428   443       98.0000   249       97.0000      100.0000   920271    3.09%
   1434   442       98.8571   263       97.0000      100.0000   926238    3.09%

Performing restart 1

Repeating presolve.
Tried aggregator 1 time.
MIP Presolve eliminated 0 rows and 97 columns.
MIP Presolve modified 7356 coefficients.
Reduced MIP has 613 rows, 2503 columns, and 24318 nonzeros.
Reduced MIP has 2503 binaries, 0 generals, 0 SOSs, and 0 indicators.
Presolve time = 0.02 sec. (21.58 ticks)
Tried aggregator 1 time.
Reduced MIP has 613 rows, 2503 columns, and 24318 nonzeros.
Reduced MIP has 2503 binaries, 0 generals, 0 SOSs, and 0 indicators.
Presolve time = 0.02 sec. (16.67 ticks)
Represolve time = 0.11 sec. (82.60 ticks)
   1436     0      100.0000   523       97.0000      Cuts: 20   933893    3.09%
   1436     0      100.0000   466       97.0000      Cuts: 19   936225    3.09%
   1436     0      100.0000   472       97.0000      Cuts: 31   939055    3.09%
   1436     0      100.0000   470       97.0000      Cuts: 17   942250    3.09%
   1436     0       99.9615   570       97.0000      Cuts: 21   948935    3.05%
   1436     0       99.0000   580       97.0000     Cuts: 181   950946    2.06%
   1436     0       99.0000   589       97.0000      Cuts: 76   953965    2.06%
   1436     0       99.0000   255       97.0000       Cuts: 4   954371    2.06%
   1436     0       99.0000   359       97.0000      Cuts: 78   956652    2.06%
   1436     2       99.0000   189       97.0000       99.0000   956652    2.06%
   1449    14       99.0000   399       97.0000       99.0000   973153    2.06%
   1466    27       99.0000   304       97.0000       99.0000   987799    2.06%
   1485    42       99.0000   147       97.0000       99.0000  1007491    2.06%
   1506    50       99.0000   216       97.0000       99.0000  1033276    2.06%
   1528    57       98.0000   213       97.0000       99.0000  1060745    2.06%
   1536    62       99.0000   422       97.0000       99.0000  1069715    2.06%
Elapsed time = 258.19 sec. (271373.45 ticks, tree = 0.30 MB, solutions = 6)
   1552    71       98.0000   258       97.0000       99.0000  1092894    2.06%
   1620    84    infeasible             97.0000       99.0000  1126533    2.06%
   1674    95       98.0000   241       97.0000       99.0000  1159404    2.06%
   1707   103       98.0000   249       97.0000       99.0000  1199970    2.06%
   1728   116        cutoff             97.0000       99.0000  1241900    2.06%
   1745   119    infeasible             97.0000       99.0000  1280077    2.06%
   1765   122    infeasible             97.0000       99.0000  1323526    2.06%
   1791   122    infeasible             97.0000       99.0000  1374518    2.06%
   1820   127       99.0000   242       97.0000       99.0000  1402701    2.06%
   1855   142       98.0000   220       97.0000       99.0000  1445307    2.06%
Elapsed time = 298.59 sec. (310967.85 ticks, tree = 0.81 MB, solutions = 6)
   1886   148       98.0000   230       97.0000       99.0000  1485205    2.06%
   1932   152       98.0000   192       97.0000       99.0000  1526550    2.06%
   1979   158       98.0000   163       97.0000       99.0000  1568164    2.06%
   2011   177       98.0000   253       97.0000       99.0000  1599286    2.06%
   2052   209       98.0000   215       97.0000       99.0000  1616394    2.06%
   2093   211       98.0000   233       97.0000       99.0000  1672308    2.06%
   2127   210       99.0000   235       97.0000       99.0000  1714273    2.06%
   2149   216       98.0000   167       97.0000       99.0000  1764203    2.06%
   2186   222       98.0000   176       97.0000       99.0000  1820527    2.06%
   2239   227       98.0000   153       97.0000       99.0000  1868847    2.06%
Elapsed time = 339.80 sec. (349936.79 ticks, tree = 1.38 MB, solutions = 6)
   2277   231       99.0000   222       97.0000       99.0000  1911930    2.06%
   2313   246       98.0000   255       97.0000       99.0000  1954641    2.06%
   2348   251       99.0000   182       97.0000       99.0000  2004265    2.06%
   2375   252    infeasible             97.0000       99.0000  2065359    2.06%
   2403   259       98.0000   199       97.0000       99.0000  2115771    2.06%
   2425   267       98.0000   244       97.0000       99.0000  2169475    2.06%
   2471   265       98.0000   196       97.0000       99.0000  2223879    2.06%
   2503   272       98.0000   135       97.0000       99.0000  2268865    2.06%
   2536   280       98.0000   187       97.0000       99.0000  2305693    2.06%
   2557   280        cutoff             97.0000       99.0000  2348219    2.06%
Elapsed time = 386.57 sec. (392977.77 ticks, tree = 1.74 MB, solutions = 6)
   2589   284    infeasible             97.0000       99.0000  2395627    2.06%
   2625   313       98.0000   291       97.0000       99.0000  2415492    2.06%
   2660   346       98.0000   249       97.0000       99.0000  2424468    2.06%
   2697   379       98.0000   205       97.0000       99.0000  2445518    2.06%
   2719   386    infeasible             97.0000       99.0000  2485251    2.06%
   2759   389    infeasible             97.0000       99.0000  2535941    2.06%
   2800   392    infeasible             97.0000       99.0000  2584451    2.06%
   2828   391       98.0000   278       97.0000       99.0000  2639102    2.06%
   2869   391        cutoff             97.0000       99.0000  2686607    2.06%
   2901   396       98.0000   243       97.0000       99.0000  2735304    2.06%
Elapsed time = 426.73 sec. (431633.70 ticks, tree = 2.48 MB, solutions = 6)
   2944   405       98.0000   250       97.0000       99.0000  2775948    2.06%
   2979   420       99.0000   178       97.0000       99.0000  2814403    2.06%
   3020   429    infeasible             97.0000       99.0000  2869150    2.06%
   3046   436       98.0000    95       97.0000       99.0000  2925798    2.06%
   3089   441       98.0000   178       97.0000       99.0000  2980343    2.06%
   3132   444       98.0000   229       97.0000       99.0000  3033305    2.06%
   3177   448       99.0000   451       97.0000       99.0000  3086701    2.06%
   3202   460       98.0000   235       97.0000       99.0000  3115079    2.06%
   3242   461       99.0000   242       97.0000       99.0000  3165023    2.06%
   3279   482       99.0000   242       97.0000       99.0000  3195110    2.06%
Elapsed time = 468.69 sec. (470826.95 ticks, tree = 3.06 MB, solutions = 6)
   3324   482       98.0000   267       97.0000       99.0000  3250258    2.06%
   3362   520       98.0000   219       97.0000       99.0000  3261515    2.06%
   3391   543    infeasible             97.0000       99.0000  3299231    2.06%
   3408   552       99.0000   415       97.0000       99.0000  3332323    2.06%
   3439   563       98.0000   275       97.0000       99.0000  3363773    2.06%
   3488   562    infeasible             97.0000       99.0000  3411827    2.06%
   3504   571       98.0000   245       97.0000       99.0000  3434060    2.06%
   3556   573       98.0000   249       97.0000       99.0000  3477245    2.06%
   3586   575       98.0000   130       97.0000       99.0000  3533611    2.06%
   3612   587       99.0000   193       97.0000       99.0000  3565908    2.06%
Elapsed time = 508.93 sec. (510304.17 ticks, tree = 3.79 MB, solutions = 6)
   3663   591    infeasible             97.0000       99.0000  3619758    2.06%
   3692   591       99.0000   239       97.0000       99.0000  3666505    2.06%
   3729   593    infeasible             97.0000       99.0000  3715544    2.06%
   3752   599       98.0000   356       97.0000       99.0000  3744412    2.06%
   3789   605       98.0000   434       97.0000       99.0000  3796280    2.06%
   3813   615       98.0000   165       97.0000       99.0000  3839823    2.06%
   3828   614    infeasible             97.0000       99.0000  3895785    2.06%
Starting limited solution polishing.
   3846   614    infeasible             97.0000       99.0000  3948236    2.06%
   3864   615       98.0000   244       97.0000       99.0000  4007412    2.06%
   3913   627       98.0000   228       97.0000       99.0000  4049359    2.06%
Elapsed time = 551.70 sec. (550867.19 ticks, tree = 4.07 MB, solutions = 6)
   3936   628       98.0000   211       97.0000       99.0000  4062426    2.06%
   3995   633       98.0000   150       97.0000       99.0000  4109762    2.06%
   4039   631       98.0000   243       97.0000       99.0000  4171794    2.06%
   4084   636       99.0000   189       97.0000       99.0000  4220768    2.06%
   4136   644    infeasible             97.0000       99.0000  4269776    2.06%
   4195   650    infeasible             97.0000       99.0000  4317334    2.06%
   4238   646       99.0000   163       97.0000       99.0000  4366823    2.06%
   4283   658       98.0000   244       97.0000       99.0000  4406747    2.06%
   4327   661       98.0000   243       97.0000       99.0000  4451659    2.06%
   4369   665       99.0000   227       97.0000       99.0000  4493825    2.06%
Elapsed time = 594.65 sec. (589784.42 ticks, tree = 4.33 MB, solutions = 6)
   4408   672    infeasible             97.0000       99.0000  4542559    2.06%

Clique cuts applied:  81
Zero-half cuts applied:  40
Gomory fractional cuts applied:  2

Root node processing (before b&c):
  Real time             =   15.60 sec. (17789.54 ticks)
Sequential b&c:
  Real time             =  584.40 sec. (576988.53 ticks)
                          ------------
Total (root+branch&cut) =  600.00 sec. (594778.08 ticks)
Primal:	97
Dual:	99
Status:	Feasible
Time:	600
Sequence:
	11
	6
	0
	12
	1
	24
	15
	4
	0
	12
	19
	8
	18
	6
	10
	23
	6
	10
	9
	1
	24
	17
	12
	10
	4
	2
	0
	4
	1
	7
	21
	4
	3
	6
	1
	13
	1
	4
	5
	4
	17
	13
	1
	4
	0
	12
	20
	4
	1
	8
	1
	9
	16
	4
	12
	0
	6
	19
	7
	1
	6
	5
	4
	19
	7
	17
	6
	3
	4
	19
	7
	17
	4
	0
	14
	12
	10
	6
	3
	22
	1
	7
	17
	4
	16
	9
	1
	8
	18
	4
	16
	9
	0
	4
	10
	14
	15
